(declare-fun e () String)
(declare-fun c () String)
(declare-fun g () String)
(declare-fun b () String)
(declare-fun f () String)
(declare-fun a () String)
(declare-fun h () String)
(assert (= h (str.++ "ed" b b "g")))
(assert (= (str.++ a "e") (str.++ h e "c")))
(assert (= (str.++ c f) (str.++ "bcaa" g)))

(check-sat)
